345 5
10 10 10 10 10 

0 0 0 0 0 0 5 2 14 26 38 50 
0 0 0 0 0 0 3 3 4 6 
7 1 0 0 0 0 3 12 8 5 
5 2 0 0 0 0 4 11 10 8 7 
9 3 0 0 0 0 3 11 10 195 
7 2 0 0 0 0 1 7 
9 2 0 0 0 0 1 9 
2 3 0 0 0 0 1 9 
10 4 0 0 0 0 1 13 
1 1 0 0 0 0 1 13 
3 4 0 0 0 0 1 13 
2 3 0 0 0 0 1 13 
0 0 0 0 0 0 1 62 
0 0 0 0 0 0 6 15 16 18 23 24 317 
2 0 1 0 0 0 2 19 17 
1 0 4 0 0 0 3 22 21 19 
3 0 4 0 0 0 3 22 21 20 
6 0 2 0 0 0 2 21 19 
4 0 1 0 0 0 1 20 
4 0 2 0 0 0 1 25 
8 0 2 0 0 0 1 25 
9 0 3 0 0 0 1 25 
7 0 4 0 0 0 1 25 
10 0 2 0 0 0 1 25 
0 0 0 0 0 0 1 62 
0 0 0 0 0 0 5 27 28 29 30 280 
8 0 0 0 0 1 4 36 33 32 31 
3 0 0 0 0 2 3 36 35 32 
3 0 0 0 0 2 3 35 33 32 
2 0 0 0 0 3 3 34 33 32 
1 0 0 0 0 2 1 34 
8 0 0 0 0 1 1 37 
4 0 0 0 0 4 1 37 
10 0 0 0 0 3 1 37 
9 0 0 0 0 3 1 37 
3 0 0 0 0 4 1 37 
0 0 0 0 0 0 1 62 
0 0 0 0 0 0 4 39 41 42 43 
8 1 0 0 0 0 3 48 40 76 
9 1 0 0 0 0 4 47 46 45 44 
1 3 0 0 0 0 4 48 47 45 44 
5 3 0 0 0 0 3 46 45 44 
1 3 0 0 0 0 1 44 
4 3 0 0 0 0 1 49 
4 1 0 0 0 0 1 49 
6 2 0 0 0 0 1 49 
6 4 0 0 0 0 1 49 
10 4 0 0 0 0 1 49 
0 0 0 0 0 0 1 62 
0 0 0 0 0 0 4 51 52 54 55 
7 0 0 0 0 1 4 60 59 56 53 
5 0 0 0 0 5 3 58 57 56 
7 0 0 0 0 3 2 58 57 
1 0 0 0 0 4 2 57 56 
1 0 0 0 0 2 2 56 338 
5 0 0 0 0 1 1 61 
5 0 0 0 0 1 1 61 
10 0 0 0 0 2 1 61 
7 0 0 0 0 5 1 61 
7 0 0 0 0 1 1 61 
0 0 0 0 0 0 1 62 
0 0 0 0 0 0 5 63 75 87 99 111 
0 0 0 0 0 0 3 64 65 67 
2 0 0 0 0 1 4 73 72 70 66 
3 0 0 0 0 4 3 70 69 68 
6 0 0 0 0 4 2 71 68 
2 0 0 0 0 2 1 69 
2 0 0 0 0 2 1 74 
5 0 0 0 0 3 1 74 
9 0 0 0 0 2 2 74 119 
1 0 0 0 0 2 1 74 
4 0 0 0 0 2 1 74 
3 0 0 0 0 3 1 74 
0 0 0 0 0 0 1 123 
0 0 0 0 0 0 5 76 77 79 80 85 
6 0 0 1 0 0 3 84 83 81 
3 0 0 3 0 0 2 78 306 
1 0 0 4 0 0 1 81 
5 0 0 2 0 0 1 82 
7 0 0 2 0 0 1 81 
6 0 0 2 0 0 1 86 
9 0 0 3 0 0 1 86 
1 0 0 4 0 0 1 86 
10 0 0 2 0 0 1 86 
9 0 0 2 0 0 1 86 
0 0 0 0 0 0 1 123 
0 0 0 0 0 0 3 88 89 90 
7 1 0 0 0 0 4 97 95 92 91 
2 1 0 0 0 0 3 96 94 93 
2 1 0 0 0 0 3 96 92 91 
1 1 0 0 0 0 1 94 
5 6 0 0 0 0 1 94 
7 3 0 0 0 0 1 95 
1 2 0 0 0 0 2 98 329 
4 4 0 0 0 0 1 98 
4 4 0 0 0 0 1 98 
3 2 0 0 0 0 1 98 
0 0 0 0 0 0 1 123 
0 0 0 0 0 0 5 100 101 107 108 109 
10 0 0 0 1 0 3 106 105 102 
1 0 0 0 4 0 2 104 102 
8 0 0 0 2 0 1 103 
2 0 0 0 3 0 1 110 
9 0 0 0 2 0 2 110 187 
6 0 0 0 4 0 1 110 
1 0 0 0 1 0 1 110 
2 0 0 0 2 0 1 110 
9 0 0 0 4 0 1 110 
4 0 0 0 2 0 1 110 
0 0 0 0 0 0 1 123 
0 0 0 0 0 0 2 112 113 
8 0 0 1 0 0 3 116 115 114 
4 0 0 1 0 0 3 116 115 114 
6 0 0 3 0 0 5 121 120 119 118 117 
9 0 0 5 0 0 4 120 119 118 117 
6 0 0 2 0 0 4 120 119 118 117 
6 0 0 2 0 0 1 122 
7 0 0 3 0 0 2 122 203 
6 0 0 3 0 0 1 122 
10 0 0 2 0 0 1 122 
4 0 0 3 0 0 1 122 
0 0 0 0 0 0 1 123 
0 0 0 0 0 0 5 124 136 148 160 172 
0 0 0 0 0 0 3 125 126 127 
9 0 0 0 0 1 5 134 130 129 128 189 
5 0 0 0 0 3 3 133 130 128 
6 0 0 0 0 3 2 131 130 
6 0 0 0 0 2 2 132 131 
7 0 0 0 0 4 2 133 131 
4 0 0 0 0 4 1 132 
7 0 0 0 0 2 1 135 
1 0 0 0 0 1 1 135 
7 0 0 0 0 3 1 135 
8 0 0 0 0 2 1 135 
0 0 0 0 0 0 1 184 
0 0 0 0 0 0 4 137 140 146 322 
3 0 0 1 0 0 2 139 138 
6 0 0 4 0 0 5 145 144 143 142 141 
8 0 0 3 0 0 2 144 143 
4 0 0 2 0 0 2 142 141 
6 0 0 1 0 0 1 147 
5 0 0 2 0 0 1 147 
3 0 0 2 0 0 1 147 
7 0 0 2 0 0 1 147 
8 0 0 4 0 0 1 147 
3 0 0 4 0 0 1 147 
0 0 0 0 0 0 1 184 
0 0 0 0 0 0 6 149 150 151 152 154 158 
9 0 0 0 0 1 2 157 155 
2 0 0 0 0 2 2 157 155 
7 0 0 0 0 3 2 156 155 
9 0 0 0 0 5 1 153 
2 0 0 0 0 3 1 155 
9 0 0 0 0 2 2 156 305 
5 0 0 0 0 2 1 159 
10 0 0 0 0 4 1 159 
5 0 0 0 0 2 1 159 
6 0 0 0 0 1 1 159 
0 0 0 0 0 0 1 184 
0 0 0 0 0 0 5 161 162 168 169 170 
3 0 0 0 0 1 3 167 166 164 
3 0 0 0 0 2 2 164 163 
10 0 0 0 0 2 1 165 
2 0 0 0 0 2 1 171 
2 0 0 0 0 2 1 171 
8 0 0 0 0 4 2 171 306 
3 0 0 0 0 3 1 171 
6 0 0 0 0 2 1 171 
8 0 0 0 0 2 1 171 
3 0 0 0 0 5 1 171 
0 0 0 0 0 0 1 184 
0 0 0 0 0 0 2 173 174 
7 0 1 0 0 0 3 180 179 176 
2 0 2 0 0 0 2 180 175 
2 0 2 0 0 0 4 182 179 178 177 
10 0 7 0 0 0 3 181 178 177 
1 0 2 0 0 0 1 183 
5 0 2 0 0 0 2 183 186 
5 0 2 0 0 0 1 183 
7 0 2 0 0 0 1 183 
9 0 2 0 0 0 1 183 
10 0 3 0 0 0 1 183 
0 0 0 0 0 0 1 184 
0 0 0 0 0 0 5 185 197 219 241 263 
0 0 0 0 0 0 2 186 187 
4 0 1 0 0 0 5 195 192 190 189 188 
7 0 2 0 0 0 4 191 190 189 188 
9 0 1 0 0 0 2 194 193 
4 0 2 0 0 0 1 194 
9 0 5 0 0 0 2 193 254 
10 0 3 0 0 0 1 194 
2 0 3 0 0 0 1 193 
1 0 3 0 0 0 1 196 
2 0 4 0 0 0 1 196 
4 0 1 0 0 0 1 196 
0 0 0 0 0 0 5 285 297 309 321 333 
0 0 0 0 0 0 6 198 199 200 202 203 206 
4 0 0 1 0 1 3 211 205 201 
1 0 0 3 0 3 5 217 216 205 204 249 
1 0 0 3 0 3 4 216 210 205 204 
1 0 0 3 0 3 3 217 216 204 
4 0 0 2 0 4 3 216 208 204 
10 0 0 2 0 1 2 216 205 
8 0 0 7 0 1 4 215 212 209 207 
3 0 0 5 0 3 4 215 212 208 207 
3 0 0 1 0 3 3 217 216 210 
3 0 0 2 0 4 1 213 
2 0 0 3 0 2 1 214 
6 0 0 1 0 1 1 214 
3 0 0 2 0 2 1 212 
5 0 0 2 0 3 1 213 
7 0 0 1 0 2 1 218 
4 0 0 4 0 3 1 218 
5 0 0 4 0 2 1 218 
3 0 0 1 0 3 1 218 
2 0 0 1 0 2 1 218 
10 0 0 2 0 4 1 218 
0 0 0 0 0 0 1 345 
0 0 0 0 0 0 9 220 221 223 224 225 226 231 238 239 
5 1 0 0 1 0 4 237 236 234 222 
8 2 0 0 4 0 6 236 235 230 229 228 339 
4 3 0 0 2 0 2 233 227 
5 3 0 0 3 0 3 234 233 232 
3 2 0 0 3 0 2 235 228 
4 1 0 0 2 0 2 233 228 
3 4 0 0 3 0 2 229 228 
3 4 0 0 2 0 1 228 
1 4 0 0 3 0 1 232 
2 2 0 0 4 0 1 232 
3 2 0 0 2 0 1 232 
3 2 0 0 2 0 1 234 
3 2 0 0 2 0 1 240 
10 1 0 0 3 0 1 240 
5 2 0 0 2 0 1 240 
4 1 0 0 4 0 1 240 
6 4 0 0 3 0 1 240 
6 2 0 0 2 0 1 240 
6 4 0 0 2 0 1 240 
5 4 0 0 1 0 1 240 
0 0 0 0 0 0 1 345 
0 0 0 0 0 0 9 242 243 244 245 246 247 250 252 253 
1 0 0 1 0 1 4 261 260 258 249 
3 0 0 3 0 2 4 261 260 251 248 
7 0 0 3 0 2 4 260 259 255 251 
1 0 0 1 0 3 3 260 251 248 
1 0 0 4 0 2 3 255 251 248 
1 0 0 2 0 2 3 260 255 251 
9 0 0 2 0 3 4 259 258 256 254 
1 0 0 1 0 3 2 259 251 
8 0 0 3 0 3 3 259 256 255 
8 0 0 3 0 3 2 256 254 
3 0 0 3 0 4 2 256 254 
1 0 0 3 0 3 2 256 254 
6 0 0 3 0 4 2 257 290 
6 0 0 5 0 2 1 258 
2 0 0 2 0 5 1 262 
9 0 0 2 0 1 1 262 
10 0 0 2 0 1 1 262 
1 0 0 3 0 1 1 262 
6 0 0 2 0 3 1 262 
4 0 0 2 0 2 1 262 
0 0 0 0 0 0 1 345 
0 0 0 0 0 0 4 264 265 266 267 
6 1 0 0 1 0 4 276 273 271 270 
1 1 0 0 2 0 3 272 270 269 
7 3 0 0 2 0 2 269 268 
8 3 0 0 1 0 5 283 276 275 274 272 
4 3 0 0 4 0 4 283 277 275 274 
4 4 0 0 2 0 3 283 276 274 
3 1 0 0 3 0 3 277 275 274 
1 2 0 0 1 0 3 277 275 274 
8 1 0 0 7 0 4 282 280 278 277 
2 2 0 0 2 0 4 283 281 280 277 
4 3 0 0 1 0 4 282 281 280 279 
3 3 0 0 3 0 3 282 281 278 
1 4 0 0 1 0 3 280 278 277 
3 1 0 0 1 0 1 279 
3 4 0 0 3 0 2 279 315 
3 5 0 0 5 0 1 284 
5 2 0 0 3 0 1 284 
9 2 0 0 2 0 1 284 
6 3 0 0 2 0 1 284 
9 2 0 0 4 0 1 284 
0 0 0 0 0 0 1 345 
0 0 0 0 0 0 4 286 287 289 290 
2 0 1 0 0 0 4 294 291 288 299 
9 0 3 0 0 0 3 294 292 291 
6 0 3 0 0 0 3 295 293 292 
8 0 5 0 0 0 3 294 293 292 
1 0 2 0 0 0 2 295 292 
4 0 2 0 0 0 1 293 
9 0 4 0 0 0 1 296 
2 0 1 0 0 0 1 296 
2 0 2 0 0 0 1 296 
1 0 2 0 0 0 1 296 
0 0 0 0 0 0 1 345 
0 0 0 0 0 0 4 298 299 300 302 
6 1 0 0 0 0 3 307 303 301 
5 2 0 0 0 0 3 306 303 301 
1 2 0 0 0 0 3 306 303 301 
10 3 0 0 0 0 2 305 304 
4 1 0 0 0 0 3 306 304 343 
8 2 0 0 0 0 1 304 
6 6 0 0 0 0 1 308 
5 1 0 0 0 0 1 308 
1 3 0 0 0 0 1 308 
10 4 0 0 0 0 1 308 
0 0 0 0 0 0 1 345 
0 0 0 0 0 0 4 310 311 318 319 
1 0 0 1 0 0 3 317 315 313 
1 0 0 4 0 0 2 314 312 
5 0 0 5 0 0 2 316 315 
3 0 0 2 0 0 2 314 340 
6 0 0 1 0 0 1 320 
2 0 0 4 0 0 1 320 
9 0 0 2 0 0 1 320 
8 0 0 2 0 0 1 320 
10 0 0 2 0 0 1 320 
5 0 0 2 0 0 1 320 
0 0 0 0 0 0 1 345 
0 0 0 0 0 0 2 322 323 
4 0 0 1 0 0 3 331 328 324 
10 0 0 4 0 0 4 328 327 326 325 
3 0 0 1 0 0 3 330 327 326 
9 0 0 2 0 0 1 329 
3 0 0 2 0 0 1 332 
8 0 0 3 0 0 2 332 334 
6 0 0 4 0 0 1 332 
2 0 0 1 0 0 1 332 
5 0 0 4 0 0 1 332 
2 0 0 3 0 0 1 332 
0 0 0 0 0 0 1 345 
0 0 0 0 0 0 3 334 337 338 
2 0 0 0 0 1 2 336 335 
7 0 0 0 0 3 4 343 341 340 339 
7 0 0 0 0 5 3 342 341 339 
3 0 0 0 0 1 2 340 339 
10 0 0 0 0 3 1 339 
7 0 0 0 0 2 1 344 
9 0 0 0 0 4 1 344 
1 0 0 0 0 2 1 344 
3 0 0 0 0 2 1 344 
9 0 0 0 0 2 1 344 
0 0 0 0 0 0 1 345 
0 0 0 0 0 0 0 
